(set-info :origin "driver benchmark extracted from Microsoft SDV")
(set-logic HORN)
(declare-fun Proc27 (Int Int Int Bool Int) Bool)
(declare-fun Proc24 (Int Int Int Bool Int) Bool)
(declare-fun Proc9 (Int Int Int Bool) Bool)
(declare-fun Proc7 (Int Int Int Bool) Bool)
(declare-fun Proc13 (Int Int Int Bool Int) Bool)
(declare-fun Proc2 (Int Int Int Bool Int Int Int) Bool)
(declare-fun Proc8 (Int Int Int Bool) Bool)
(declare-fun Proc23 (Int Int Int Bool Int) Bool)
(declare-fun Proc32 (Int Int Int Bool Int Int Int Int Int) Bool)
(declare-fun Proc21 (Int Int Int Bool Int) Bool)
(declare-fun Proc34 (Int Int Int Bool Int Bool Int Int Int) Bool)
(declare-fun Proc22 (Int Int Int Bool Int) Bool)
(declare-fun Proc12 (Int Int Int Bool Int Int) Bool)
(declare-fun Proc4 (Int Int Int Bool Int Int Int) Bool)
(declare-fun Proc11 (Int Int Int Bool) Bool)
(declare-fun Proc29 (Int Int Int Bool Int) Bool)
(declare-fun Proc31 (Int Int Int Bool Int Int Int Int) Bool)
(declare-fun Proc25 (Int Int Int Bool Int) Bool)
(declare-fun Proc10 (Int Int Int Bool) Bool)
(declare-fun Proc16 (Int Int Int Bool Int) Bool)
(declare-fun Proc20 (Int Int Int Bool Int) Bool)
(declare-fun Proc3 (Int Int Int Bool Int Int) Bool)
(declare-fun Proc19 (Int Int Int Bool Int) Bool)
(declare-fun Proc18 (Int Int Int Bool Int) Bool)
(declare-fun Proc14 (Int Int Int Bool Int Int) Bool)
(declare-fun Proc26 (Int Int Int Bool Int) Bool)
(declare-fun Proc6 (Int Int Int Bool Int Int Int) Bool)
(declare-fun Proc30 (Int Int Int Bool) Bool)
(declare-fun Proc17 (Int Int Int Bool Int) Bool)
(declare-fun Proc28 (Int Int Int Bool Int) Bool)
(declare-fun Proc15 (Int Int Int Bool Int Int Int Bool Int) Bool)
(declare-fun Proc33 (Int Int Int Bool) Bool)
(declare-fun Proc0 (Int Int Int Bool Int Int) Bool)
(declare-fun Proc1 (Int Int Int Bool Int Int) Bool)
(declare-fun Proc5 (Int Int Int Bool Int) Bool)
(assert (forall ((A Int)
         (B Int)
         (C Int)
         (D Int)
         (E Int)
         (F Int)
         (G Int)
         (H Int)
         (I Bool))
  (let ((a!1 (not (or (not I)
                      (not (Proc0 H G F I E D))
                      (not (Proc1 H G F I D C))
                      (not (= B 0))))))
    (=> a!1 (Proc2 H G F I E A B)))))
(assert (forall ((A Int) (B Int) (C Int) (D Int) (E Int) (F Int) (I Bool))
  (let ((a!1 (not (or (not I) (not (= F E))))))
    (=> a!1 (Proc0 D C B I A F)))))
(assert (forall ((A Int)
         (B Int)
         (C Int)
         (D Int)
         (E Int)
         (F Int)
         (G Int)
         (H Int)
         (I Bool)
         (J Int))
  (let ((a!1 (and (not (<= G (+ 1 J))) (not (<= G H)))))
  (let ((a!2 (or (not I)
                 (not (= J H))
                 (not a!1)
                 (not (Proc3 G F E I J D))
                 (not (and (= C G) (= B D))))))
    (=> (not a!2) (Proc4 H F E I A C B))))))
(assert (forall ((A Int) (B Int) (C Int) (D Int) (E Int) (I Bool))
  (let ((a!1 (not (or (not I) (not (= E 1))))))
    (=> a!1 (Proc3 D C B I A E)))))
(assert (forall ((A Int) (B Int) (C Int) (D Int) (I Bool)) (=> false (Proc5 D C B I A))))
(assert (forall ((A Int)
         (B Int)
         (C Int)
         (D Int)
         (E Int)
         (F Int)
         (G Int)
         (H Int)
         (I Bool)
         (J Int)
         (K Int)
         (L Int)
         (M Int))
  (let ((a!1 (or (not (= G 1))
                 (not (and (= F H) (= E G)))
                 (not (and (= D F) (= C E)))))
        (a!2 (or (= G 1)
                 (not (and (= F H) (= E G)))
                 (not (and (= D F) (= C E)))))
        (a!3 (and (not (<= A (+ 1 B))) (not (<= A L)))))
  (let ((a!4 (or (not (= M 0))
                 (not (= B L))
                 (not a!3)
                 (not (Proc5 A M K I B))
                 (not (and (= F A) (= E K)))
                 (not (and (= D F) (= C E))))))
  (let ((a!5 (and (or (= M 0) (not (Proc4 L M K I J H G)) (and a!1 a!2)) a!4)))
    (=> (not (or (not I) a!5)) (Proc6 L M K I J D C)))))))
(assert (forall ((A Int) (B Int) (C Int) (I Bool)) (=> I (Proc7 C B A I))))
(assert (forall ((A Int) (B Int) (C Int) (I Bool)) (=> I (Proc8 C B A I))))
(assert (forall ((A Int) (B Int) (C Int) (I Bool)) (=> I (Proc9 C B A I))))
(assert (forall ((A Int) (B Int) (C Int) (I Bool)) (=> I (Proc10 C B A I))))
(assert (forall ((A Int) (B Int) (C Int) (I Bool)) (=> I (Proc11 C B A I))))
(assert (forall ((A Int) (B Int) (C Int) (D Int) (E Int) (I Bool))
  (let ((a!1 (or (not I) (not (and (= E 0) (= D 0))))))
    (=> (not a!1) (Proc12 C B A I E D)))))
(assert (forall ((A Int)
         (B Int)
         (C Int)
         (D Int)
         (E Int)
         (F Int)
         (G Int)
         (H Int)
         (I Bool)
         (J Int)
         (K Int)
         (L Int)
         (M Int)
         (N Bool)
         (O Bool)
         (P Int)
         (Q Int)
         (R Int)
         (S Bool))
  (let ((a!1 (not (and (not (<= R 0)) (Proc13 R Q P S M))))
        (a!2 (not (and (= E G) (= D L) (= C H) (= N O) (= B J)))))
  (let ((a!3 (or (= H 0) (not (and (= G F) (not O))) a!2))
        (a!4 (or (not (and (= H 0) (= I S))) (not (and (= G A) (= O I))) a!2)))
  (let ((a!5 (and (or (= H 1) (and a!3 a!4)) (or (not (= H 1)) (and a!3 a!4)))))
  (let ((a!6 (not (or (not S)
                      a!1
                      (not (Proc12 M Q P S L K))
                      (not (Proc11 M L K S))
                      (not (Proc10 M L K S))
                      (not (Proc9 M L K S))
                      (not (Proc8 M L K S))
                      (not (Proc7 M L K S))
                      (not (Proc14 M L K S J H))
                      a!5))))
    (=> a!6 (Proc15 R Q P S E D C N B))))))))
(assert (forall ((A Int) (B Int) (C Int) (D Int) (I Bool))
  (let ((a!1 (not (or (not I) (not (= D 1))))))
    (=> a!1 (Proc16 C B A I D)))))
(assert (forall ((A Int) (B Int) (C Int) (D Int) (I Bool))
  (let ((a!1 (not (or (not I) (not (= D 1))))))
    (=> a!1 (Proc17 C B A I D)))))
(assert (forall ((A Int) (B Int) (C Int) (D Int) (I Bool))
  (let ((a!1 (not (or (not I) (not (= D 1))))))
    (=> a!1 (Proc18 C B A I D)))))
(assert (forall ((A Int) (B Int) (C Int) (D Int) (I Bool))
  (let ((a!1 (not (or (not I) (not (= D 0))))))
    (=> a!1 (Proc19 C B A I D)))))
(assert (forall ((A Int) (B Int) (C Int) (D Int) (I Bool))
  (let ((a!1 (not (or (not I) (not (= D 1))))))
    (=> a!1 (Proc20 C B A I D)))))
(assert (forall ((A Int) (B Int) (C Int) (D Int) (I Bool))
  (let ((a!1 (not (or (not I) (not (= D 0))))))
    (=> a!1 (Proc21 C B A I D)))))
(assert (forall ((A Int) (B Int) (C Int) (D Int) (I Bool))
  (let ((a!1 (not (or (not I) (not (= D 1))))))
    (=> a!1 (Proc22 C B A I D)))))
(assert (forall ((A Int) (B Int) (C Int) (D Int) (I Bool))
  (let ((a!1 (not (or (not I) (not (= D 1))))))
    (=> a!1 (Proc23 C B A I D)))))
(assert (forall ((A Int) (B Int) (C Int) (D Int) (I Bool))
  (let ((a!1 (not (or (not I) (not (= D 0))))))
    (=> a!1 (Proc24 C B A I D)))))
(assert (forall ((A Int) (B Int) (C Int) (D Int) (I Bool))
  (let ((a!1 (not (or (not I) (not (= D 0))))))
    (=> a!1 (Proc25 C B A I D)))))
(assert (forall ((A Int) (B Int) (C Int) (D Int) (I Bool))
  (let ((a!1 (not (or (not I) (not (= D 0))))))
    (=> a!1 (Proc26 C B A I D)))))
(assert (forall ((A Int) (B Int) (C Int) (D Int) (E Int) (I Bool))
  (let ((a!1 (or (not I) (not (= E (- 1073741823))) (not (= D E)))))
    (=> (not a!1) (Proc27 C B A I D)))))
(assert (forall ((A Int) (B Int) (C Int) (D Int) (I Bool))
  (let ((a!1 (not (or (not I) (not (= D 0))))))
    (=> a!1 (Proc28 C B A I D)))))
(assert (forall ((A Int) (B Int) (C Int) (D Int) (E Int) (F Int) (I Bool))
  (let ((a!1 (not (or (not I) (not (= F E))))))
    (=> a!1 (Proc1 D C B I A F)))))
(assert (forall ((A Int)
         (B Int)
         (C Int)
         (D Int)
         (E Int)
         (F Int)
         (G Int)
         (H Int)
         (I Bool)
         (J Int)
         (K Int)
         (L Int)
         (M Int)
         (P Int)
         (Q Int)
         (R Int)
         (T Int)
         (U Int)
         (V Int)
         (W Int))
  (let ((a!1 (not (Proc31 V U T I M W L K)))
        (a!2 (not (and (= G J) (= F L) (= E K)))))
  (let ((a!3 (or (not (and (= K 1) (= J H))) a!2)))
  (let ((a!4 (and a!3 (or (= K 1) (= W 0) (not (= J M)) a!2))))
  (let ((a!5 (and (or (= R 0) (not (Proc2 V U T I Q W P)) (not (= M P)) a!1 a!4)
                  (or (= R 0) (not (Proc27 V U T I D)) (not (= M D)) a!1 a!4)
                  (or (= R 0) (not (Proc27 V U T I C)) (not (= M C)) a!1 a!4)
                  (or (not (Proc27 V U T I B)) (not (= M B)) a!1 a!4)
                  (or (not (Proc27 V U T I A)) (not (= M A)) a!1 a!4))))
  (let ((a!6 (not (or (not I)
                      (= W 0)
                      (not (Proc29 V U T I W))
                      (= R 0)
                      (not (Proc30 V U T I))
                      a!5))))
    (=> a!6 (Proc32 V U T I Q W G F E)))))))))
(assert (forall ((A Int) (B Int) (C Int) (D Int) (I Bool))
  (=> (not (or (not I) (= D 0))) (Proc29 C B A I D))))
(assert (forall ((A Int)
         (B Int)
         (C Int)
         (D Int)
         (E Int)
         (F Int)
         (G Int)
         (H Int)
         (I Bool)
         (J Int)
         (K Int)
         (L Int)
         (M Int)
         (P Int)
         (Q Int)
         (R Int)
         (T Int)
         (U Int)
         (V Int)
         (W Int)
         (X Int)
         (Y Int)
         (Z Int)
         (A1 Int)
         (B1 Int))
  (let ((a!1 (or (not (and (= J B1) (= H Z))) (not (and (= G J) (= F H)))))
        (a!2 (or (not (= A 1))
                 (not (and (= J B) (= H A)))
                 (not (and (= G J) (= F H)))))
        (a!3 (or (= A 1)
                 (not (and (= J B) (= H A)))
                 (not (and (= G J) (= F H)))))
        (a!4 (or (not (= Y 0))
                 (not (and (= J B1) (= H Z)))
                 (not (and (= G J) (= F H))))))
  (let ((a!5 (and a!1
                  (or (= Y 0)
                      (not (Proc33 B1 A1 Z I))
                      (not (Proc32 B1 A1 Z I E D C B A))
                      (and a!2 a!3))
                  a!4)))
  (let ((a!6 (not (or (not I)
                      (not (Proc18 B1 A1 Z I Y))
                      (not (Proc25 B1 A1 Z I X))
                      (not (Proc19 B1 A1 Z I W))
                      (not (Proc24 B1 A1 Z I V))
                      (not (Proc17 B1 A1 Z I U))
                      (not (Proc21 B1 A1 Z I T))
                      (not (Proc28 B1 A1 Z I R))
                      (not (Proc26 B1 A1 Z I Q))
                      (not (Proc16 B1 A1 Z I P))
                      (not (Proc22 B1 A1 Z I M))
                      (not (Proc23 B1 A1 Z I L))
                      (not (Proc20 B1 A1 Z I K))
                      a!5))))
    (=> a!6 (Proc14 B1 A1 Z I G F)))))))
(assert (forall ((A Int) (B Int) (C Int) (I Bool)) (=> I (Proc30 C B A I))))
(assert (forall ((A Int)
         (B Int)
         (C Int)
         (D Int)
         (E Int)
         (F Int)
         (G Int)
         (H Int)
         (I Bool)
         (J Int)
         (K Int)
         (L Int))
  (let ((a!1 (and (not (<= J (+ 1 L))) (not (<= J K))))
        (a!2 (or (not (= E 1)) (not (and (= D F) (= C E)))))
        (a!3 (or (= E 1) (not (and (= D F) (= C E))))))
  (let ((a!4 (not (or (not I)
                      (not (= L K))
                      (not a!1)
                      (not (Proc6 J H G I L F E))
                      (and a!2 a!3)))))
    (=> a!4 (Proc31 K H G I B A D C))))))
(assert (forall ((A Int) (B Int) (C Int) (I Bool)) (=> I (Proc33 C B A I))))
(assert (forall ((A Int)
         (B Int)
         (C Int)
         (D Int)
         (E Int)
         (F Int)
         (G Int)
         (H Int)
         (I Bool)
         (J Int)
         (K Int)
         (L Int)
         (M Int)
         (P Int)
         (Q Int)
         (R Int)
         (T Int)
         (U Int)
         (V Int)
         (W Int)
         (X Int)
         (Y Int)
         (Z Int)
         (A1 Int)
         (B1 Int)
         (C1 Int)
         (D1 Int)
         (E1 Int)
         (F1 Int)
         (G1 Int)
         (H1 Int)
         (I1 Int)
         (J1 Int)
         (K1 Int)
         (L1 Int)
         (M1 Int)
         (N1 Int)
         (O1 Int)
         (P1 Int)
         (Q1 Int)
         (R1 Int)
         (S1 Int)
         (T1 Int)
         (U1 Int)
         (V1 Int)
         (W1 Int)
         (X1 Int)
         (Y1 Int)
         (Z1 Int)
         (A2 Int)
         (B2 Int))
  (let ((a!1 (and (not (<= Z1 (+ 4 B2)))
                  (not (<= Z1 A2))
                  (= Y1 Z1)
                  (not (<= X1 (+ 332 Y1)))))
        (a!2 (and (not (<= X1 Z1))
                  (= W1 X1)
                  (not (<= V1 (+ 4 W1)))
                  (not (<= V1 X1))
                  (= U1 V1)
                  (not (<= T1 (+ 536 U1)))
                  (not (<= T1 V1))
                  (= S1 T1)
                  (not (<= R1 (+ 240 S1)))
                  (not (<= R1 T1))
                  (= Q1 R1)
                  (not (<= P1 (+ 240 Q1)))
                  (not (<= P1 R1))
                  (= O1 P1)
                  (not (<= N1 (+ 240 O1)))
                  (not (<= N1 P1))
                  (= M1 N1)
                  (not (<= L1 (+ 4 M1)))
                  (not (<= L1 N1))
                  (= K1 L1)
                  (not (<= J1 (+ 536 K1)))
                  (not (<= J1 L1))
                  (= I1 J1)
                  (not (<= H1 (+ 332 I1)))
                  (not (<= H1 J1))
                  (= G1 H1)
                  (not (<= F1 (+ 240 G1)))
                  (not (<= F1 H1))
                  (= E1 F1)
                  (not (<= D1 (+ 240 E1)))
                  (not (<= D1 F1))
                  (= C1 D1)
                  (not (<= B1 (+ 332 C1)))
                  (not (<= B1 D1))
                  (= A1 B1)
                  (not (<= Z (+ 4 A1)))
                  (not (<= Z B1))
                  (= Y Z)
                  (not (<= X (+ 240 Y)))
                  (not (<= X Z))
                  (= W X)
                  (not (<= V (+ 240 W)))
                  (not (<= V X))
                  (= U V)
                  (not (<= T (+ 240 U)))
                  (not (<= T V))
                  (= R T)
                  (not (<= Q (+ 240 R)))
                  (not (<= Q T))
                  (= P Q)
                  (not (<= M (+ 240 P)))
                  (not (<= M Q))
                  (= L M)
                  (not (<= K (+ 40 L)))
                  (not (<= K M))
                  (= J K)
                  (not (<= H (+ 332 J)))
                  (not (<= H K))
                  (= G H)
                  (not (<= F (+ 4 G)))
                  (not (<= F H))
                  (= E F)
                  (not (<= D (+ 40 E)))
                  (not (<= D F)))))
  (let ((a!3 (not (or (not I) (not (= B2 A2)) (not a!1) (not a!2) (not (= C D))))))
    (=> a!3 (Proc13 A2 B A I C))))))
(assert (forall ((A Int)
         (B Int)
         (C Int)
         (D Int)
         (E Int)
         (F Int)
         (G Int)
         (H Int)
         (I Bool)
         (J Int)
         (K Int)
         (L Int)
         (N Bool)
         (O Bool))
  (let ((a!1 (or (not O) (not (and (Proc15 L K J true H G F N E) (not N))))))
    (=> (not a!1) (Proc34 L K J O D I C B A)))))
(assert (let ((a!1 (exists ((V0 Int)
                    (V1 Int)
                    (V2 Int)
                    (V3 Bool)
                    (V4 Int)
                    (V5 Bool)
                    (V6 Int)
                    (V7 Int)
                    (V8 Int))
             (not (=> (and (Proc34 V0 V1 V2 V3 V4 V5 V6 V7 V8) (not false))
                      false)))))
  (not a!1)))

(check-sat)
